p cnf 200 300
1 76 0
1 74 0
1 109 0
2 54 0
2 35 0
2 10 0
3 25 0
3 12 0
3 116 0
4 9 0
4 23 0
4 106 0
5 39 0
5 164 0
5 60 0
6 45 0
6 51 0
6 47 0
7 184 0
7 81 0
7 28 0
8 167 0
8 114 0
8 53 0
9 156 0
9 179 0
10 193 0
10 46 0
11 121 0
11 165 0
11 99 0
12 89 0
12 62 0
13 53 0
13 102 0
13 75 0
14 127 0
14 22 0
14 157 0
15 107 0
15 181 0
15 108 0
16 104 0
16 185 0
16 84 0
17 74 0
17 110 0
17 84 0
18 121 0
18 95 0
18 23 0
19 112 0
19 197 0
19 173 0
20 96 0
20 114 0
20 80 0
21 145 0
21 94 0
21 71 0
22 52 0
22 101 0
23 118 0
24 138 0
24 177 0
24 89 0
25 191 0
25 165 0
26 170 0
26 135 0
26 115 0
27 120 0
27 166 0
27 97 0
28 142 0
28 57 0
29 42 0
29 125 0
29 157 0
30 174 0
30 130 0
30 188 0
31 175 0
31 88 0
31 145 0
32 116 0
32 45 0
32 174 0
33 191 0
33 93 0
33 41 0
34 198 0
34 73 0
34 158 0
35 79 0
35 63 0
36 42 0
36 48 0
36 194 0
37 200 0
37 73 0
37 139 0
38 83 0
38 120 0
38 85 0
39 140 0
39 158 0
40 50 0
40 122 0
40 57 0
41 69 0
41 117 0
42 91 0
43 101 0
43 146 0
43 100 0
44 59 0
44 190 0
44 161 0
45 166 0
46 169 0
46 103 0
47 55 0
47 182 0
48 137 0
48 127 0
49 92 0
49 159 0
49 136 0
50 185 0
50 195 0
51 128 0
51 200 0
52 113 0
52 182 0
53 186 0
54 56 0
54 125 0
55 137 0
55 188 0
56 163 0
56 82 0
57 126 0
58 151 0
58 190 0
58 61 0
59 63 0
59 167 0
60 192 0
60 152 0
61 141 0
61 76 0
62 155 0
62 196 0
63 98 0
64 93 0
64 153 0
64 143 0
65 81 0
65 70 0
65 141 0
66 86 0
66 72 0
66 112 0
67 199 0
67 146 0
67 187 0
68 108 0
68 186 0
68 192 0
69 165 0
69 70 0
70 161 0
71 95 0
71 101 0
72 87 0
72 140 0
73 129 0
74 99 0
75 119 0
75 132 0
76 97 0
77 176 0
77 148 0
77 178 0
78 79 0
78 158 0
78 135 0
79 115 0
80 122 0
80 103 0
81 131 0
82 184 0
82 94 0
83 85 0
83 100 0
84 95 0
85 179 0
86 161 0
86 98 0
87 88 0
87 126 0
88 160 0
89 174 0
90 114 0
90 117 0
90 128 0
91 111 0
91 194 0
92 189 0
92 124 0
93 160 0
94 129 0
96 106 0
96 130 0
97 155 0
98 171 0
99 157 0
100 107 0
102 177 0
102 119 0
103 105 0
104 107 0
104 170 0
105 109 0
105 111 0
106 142 0
108 153 0
109 192 0
110 187 0
110 132 0
111 179 0
112 183 0
113 120 0
113 154 0
115 151 0
116 164 0
117 124 0
118 198 0
118 197 0
119 149 0
121 170 0
122 168 0
123 178 0
123 133 0
123 169 0
124 147 0
125 138 0
126 175 0
127 134 0
128 152 0
129 162 0
130 131 0
131 198 0
132 194 0
133 184 0
133 147 0
134 162 0
134 182 0
135 149 0
136 155 0
136 183 0
137 151 0
138 144 0
139 148 0
139 164 0
140 145 0
141 163 0
142 173 0
143 181 0
143 147 0
144 149 0
144 160 0
146 186 0
148 159 0
150 196 0
150 156 0
150 166 0
152 181 0
153 168 0
154 172 0
154 189 0
156 176 0
159 200 0
162 189 0
163 185 0
167 190 0
168 176 0
169 195 0
171 180 0
171 178 0
172 183 0
172 196 0
173 187 0
175 191 0
177 180 0
180 197 0
188 193 0
193 199 0
195 199 0
g -122